
Gurobi 6.5.1 (mac64) logging started Fri May 27 18:23:02 2016

Optimize a model with 0 rows, 22 columns and 0 nonzeros
Coefficient statistics:
  Matrix range    [0e+00, 0e+00]
  Objective range [0e+00, 0e+00]
  Bounds range    [0e+00, 0e+00]
  RHS range       [0e+00, 0e+00]
Presolve removed 0 rows and 22 columns
Presolve time: 0.01s
Presolve: All rows and columns removed
Iteration    Objective       Primal Inf.    Dual Inf.      Time
       0    0.0000000e+00   0.000000e+00   0.000000e+00      0s

Solved in 0 iterations and 0.01 seconds
Optimal objective  0.000000000e+00
Optimize a model with 0 rows, 22 columns and 0 nonzeros
Coefficient statistics:
  Matrix range    [0e+00, 0e+00]
  Objective range [1e+00, 1e+00]
  Bounds range    [1e+00, 1e+00]
  RHS range       [0e+00, 0e+00]
Found heuristic solution: objective 0
Presolve removed 0 rows and 22 columns
Presolve time: 0.00s
Presolve: All rows and columns removed

Explored 0 nodes (0 simplex iterations) in 0.01 seconds
Thread count was 1 (of 8 available processors)

Optimal solution found (tolerance 1.00e-04)
Best objective 0.000000000000e+00, best bound 0.000000000000e+00, gap 0.0%
Optimize a model with 34 rows, 42 columns and 100 nonzeros
Coefficient statistics:
  Matrix range    [1e+00, 1e+00]
  Objective range [2e+01, 1e+02]
  Bounds range    [1e+00, 1e+00]
  RHS range       [1e+00, 6e+00]
Found heuristic solution: objective 1.2e+33
Presolve removed 0 rows and 3 columns
Presolve time: 0.00s

Explored 0 nodes (0 simplex iterations) in 0.01 seconds
Thread count was 1 (of 8 available processors)

Model is unbounded
Best objective 1.200000000000e+33, best bound -, gap -
Optimize a model with 98 rows, 22 columns and 195 nonzeros
Coefficient statistics:
  Matrix range    [1e+00, 1e+02]
  Objective range [2e+01, 1e+02]
  Bounds range    [1e+00, 1e+00]
  RHS range       [1e+00, 2e+01]
Found heuristic solution: objective 600
Presolve removed 98 rows and 22 columns
Presolve time: 0.00s
Presolve: All rows and columns removed

Explored 0 nodes (0 simplex iterations) in 0.01 seconds
Thread count was 1 (of 8 available processors)

Optimal solution found (tolerance 1.00e-04)
Best objective 6.000000000000e+02, best bound 6.000000000000e+02, gap 0.0%
Optimize a model with 1524 rows, 363 columns and 3366 nonzeros
Coefficient statistics:
  Matrix range    [1e+00, 1e+02]
  Objective range [2e+01, 1e+02]
  Bounds range    [1e+00, 1e+00]
  RHS range       [1e+00, 2e+01]
Found heuristic solution: objective 7500
Presolve removed 1439 rows and 245 columns
Presolve time: 0.01s
Presolved: 85 rows, 118 columns, 453 nonzeros
Variable types: 0 continuous, 118 integer (117 binary)

Root relaxation: objective 9.450000e+03, 49 iterations, 0.00 seconds

    Nodes    |    Current Node    |     Objective Bounds      |     Work
 Expl Unexpl |  Obj  Depth IntInf | Incumbent    BestBd   Gap | It/Node Time

*    0     0               0    9450.0000000 9450.00000  0.00%     -    0s

Explored 0 nodes (49 simplex iterations) in 0.02 seconds
Thread count was 8 (of 8 available processors)

Optimal solution found (tolerance 1.00e-04)
Best objective 9.450000000000e+03, best bound 9.450000000000e+03, gap 0.0%
Optimize a model with 30086 rows, 7813 columns and 74450 nonzeros
Coefficient statistics:
  Matrix range    [1e+00, 1e+02]
  Objective range [2e+01, 1e+02]
  Bounds range    [1e+00, 1e+00]
  RHS range       [1e+00, 2e+01]
Found heuristic solution: objective 37100
Presolve removed 27122 rows and 5102 columns
Presolve time: 0.45s
Presolved: 2964 rows, 2711 columns, 13516 nonzeros
Variable types: 0 continuous, 2711 integer (2711 binary)

Root relaxation: objective 5.247500e+04, 283 iterations, 0.01 seconds

    Nodes    |    Current Node    |     Objective Bounds      |     Work
 Expl Unexpl |  Obj  Depth IntInf | Incumbent    BestBd   Gap | It/Node Time

     0     0 52475.0000    0    2 37100.0000 52475.0000  41.4%     -    0s
H    0     0                    52475.000000 52475.0000  0.00%     -    0s

Explored 0 nodes (480 simplex iterations) in 0.51 seconds
Thread count was 8 (of 8 available processors)

Optimal solution found (tolerance 1.00e-04)
Best objective 5.247500000000e+04, best bound 5.247500000000e+04, gap 0.0%
Optimize a model with 98 rows, 22 columns and 195 nonzeros
Coefficient statistics:
  Matrix range    [1e+00, 1e+02]
  Objective range [2e+01, 1e+02]
  Bounds range    [1e+00, 1e+00]
  RHS range       [1e+00, 2e+01]
Found heuristic solution: objective 600
Presolve removed 98 rows and 22 columns
Presolve time: 0.00s
Presolve: All rows and columns removed

Explored 0 nodes (0 simplex iterations) in 0.01 seconds
Thread count was 1 (of 8 available processors)

Optimal solution found (tolerance 1.00e-04)
Best objective 6.000000000000e+02, best bound 6.000000000000e+02, gap 0.0%
Optimize a model with 1524 rows, 363 columns and 3366 nonzeros
Coefficient statistics:
  Matrix range    [1e+00, 1e+02]
  Objective range [2e+01, 1e+02]
  Bounds range    [1e+00, 1e+00]
  RHS range       [1e+00, 2e+01]
Found heuristic solution: objective 7500
Presolve removed 1439 rows and 245 columns
Presolve time: 0.00s
Presolved: 85 rows, 118 columns, 453 nonzeros
Variable types: 0 continuous, 118 integer (117 binary)

Root relaxation: objective 9.450000e+03, 49 iterations, 0.00 seconds

    Nodes    |    Current Node    |     Objective Bounds      |     Work
 Expl Unexpl |  Obj  Depth IntInf | Incumbent    BestBd   Gap | It/Node Time

*    0     0               0    9450.0000000 9450.00000  0.00%     -    0s

Explored 0 nodes (49 simplex iterations) in 0.01 seconds
Thread count was 8 (of 8 available processors)

Optimal solution found (tolerance 1.00e-04)
Best objective 9.450000000000e+03, best bound 9.450000000000e+03, gap 0.0%
Optimize a model with 98 rows, 22 columns and 195 nonzeros
Coefficient statistics:
  Matrix range    [1e+00, 1e+02]
  Objective range [2e+01, 1e+02]
  Bounds range    [1e+00, 1e+00]
  RHS range       [1e+00, 2e+01]
Found heuristic solution: objective 600
Presolve removed 98 rows and 22 columns
Presolve time: 0.00s
Presolve: All rows and columns removed

Explored 0 nodes (0 simplex iterations) in 0.01 seconds
Thread count was 1 (of 8 available processors)

Optimal solution found (tolerance 1.00e-04)
Best objective 6.000000000000e+02, best bound 6.000000000000e+02, gap 0.0%
Optimize a model with 98 rows, 22 columns and 195 nonzeros
Coefficient statistics:
  Matrix range    [1e+00, 1e+02]
  Objective range [2e+01, 1e+02]
  Bounds range    [1e+00, 1e+00]
  RHS range       [1e+00, 2e+01]
Found heuristic solution: objective 600
Presolve removed 98 rows and 22 columns
Presolve time: 0.00s
Presolve: All rows and columns removed

Explored 0 nodes (0 simplex iterations) in 0.00 seconds
Thread count was 1 (of 8 available processors)

Optimal solution found (tolerance 1.00e-04)
Best objective 6.000000000000e+02, best bound 6.000000000000e+02, gap 0.0%
Optimize a model with 1524 rows, 363 columns and 3366 nonzeros
Coefficient statistics:
  Matrix range    [1e+00, 1e+02]
  Objective range [2e+01, 1e+02]
  Bounds range    [1e+00, 1e+00]
  RHS range       [1e+00, 2e+01]
Found heuristic solution: objective 7550
Presolve removed 1439 rows and 245 columns
Presolve time: 0.00s
Presolved: 85 rows, 118 columns, 453 nonzeros
Variable types: 0 continuous, 118 integer (117 binary)

Root relaxation: objective 9.450000e+03, 53 iterations, 0.00 seconds

    Nodes    |    Current Node    |     Objective Bounds      |     Work
 Expl Unexpl |  Obj  Depth IntInf | Incumbent    BestBd   Gap | It/Node Time

     0     0 9450.00000    0    2 7550.00000 9450.00000  25.2%     -    0s
H    0     0                    9375.0000000 9450.00000  0.80%     -    0s
H    0     0                    9425.0000000 9450.00000  0.27%     -    0s
H    0     0                    9450.0000000 9450.00000  0.00%     -    0s

Explored 0 nodes (58 simplex iterations) in 0.02 seconds
Thread count was 8 (of 8 available processors)

Optimal solution found (tolerance 1.00e-04)
Best objective 9.450000000000e+03, best bound 9.450000000000e+03, gap 0.0%
Optimize a model with 314 rows, 22 columns and 483 nonzeros
Coefficient statistics:
  Matrix range    [1e+00, 1e+02]
  Objective range [2e+01, 1e+02]
  Bounds range    [1e+00, 1e+00]
  RHS range       [1e+00, 2e+01]
Found heuristic solution: objective 600
Presolve removed 314 rows and 22 columns
Presolve time: 0.00s
Presolve: All rows and columns removed

Explored 0 nodes (0 simplex iterations) in 0.01 seconds
Thread count was 1 (of 8 available processors)

Optimal solution found (tolerance 1.00e-04)
Best objective 6.000000000000e+02, best bound 6.000000000000e+02, gap 0.0%
Optimize a model with 98 rows, 22 columns and 195 nonzeros
Coefficient statistics:
  Matrix range    [1e+00, 1e+02]
  Objective range [2e+01, 1e+02]
  Bounds range    [1e+00, 1e+00]
  RHS range       [1e+00, 2e+01]
Found heuristic solution: objective 600
Presolve removed 98 rows and 22 columns
Presolve time: 0.00s
Presolve: All rows and columns removed

Explored 0 nodes (0 simplex iterations) in 0.01 seconds
Thread count was 1 (of 8 available processors)

Optimal solution found (tolerance 1.00e-04)
Best objective 6.000000000000e+02, best bound 6.000000000000e+02, gap 0.0%
Optimize a model with 314 rows, 22 columns and 483 nonzeros
Coefficient statistics:
  Matrix range    [1e+00, 1e+02]
  Objective range [2e+01, 1e+02]
  Bounds range    [1e+00, 1e+00]
  RHS range       [1e+00, 2e+01]
Found heuristic solution: objective 600
Presolve removed 314 rows and 22 columns
Presolve time: 0.00s
Presolve: All rows and columns removed

Explored 0 nodes (0 simplex iterations) in 0.01 seconds
Thread count was 1 (of 8 available processors)

Optimal solution found (tolerance 1.00e-04)
Best objective 6.000000000000e+02, best bound 6.000000000000e+02, gap 0.0%
Optimize a model with 71 rows, 22 columns and 159 nonzeros
Coefficient statistics:
  Matrix range    [1e+00, 1e+02]
  Objective range [2e+01, 1e+02]
  Bounds range    [1e+00, 1e+00]
  RHS range       [1e+00, 2e+01]
Found heuristic solution: objective 575
Presolve removed 71 rows and 22 columns
Presolve time: 0.00s
Presolve: All rows and columns removed

Explored 0 nodes (0 simplex iterations) in 0.00 seconds
Thread count was 1 (of 8 available processors)

Optimal solution found (tolerance 1.00e-04)
Best objective 6.000000000000e+02, best bound 6.000000000000e+02, gap 0.0%
Optimize a model with 912 rows, 363 columns and 2550 nonzeros
Coefficient statistics:
  Matrix range    [1e+00, 1e+02]
  Objective range [2e+01, 1e+02]
  Bounds range    [1e+00, 1e+00]
  RHS range       [1e+00, 2e+01]
Found heuristic solution: objective 7450
Presolve removed 710 rows and 127 columns
Presolve time: 0.00s
Presolved: 202 rows, 236 columns, 1002 nonzeros
Variable types: 0 continuous, 236 integer (236 binary)

Root relaxation: objective 9.700000e+03, 129 iterations, 0.00 seconds

    Nodes    |    Current Node    |     Objective Bounds      |     Work
 Expl Unexpl |  Obj  Depth IntInf | Incumbent    BestBd   Gap | It/Node Time

*    0     0               0    9700.0000000 9700.00000  0.00%     -    0s

Explored 0 nodes (129 simplex iterations) in 0.01 seconds
Thread count was 8 (of 8 available processors)

Optimal solution found (tolerance 1.00e-04)
Best objective 9.700000000000e+03, best bound 9.700000000000e+03, gap 0.0%
Optimize a model with 1524 rows, 363 columns and 3366 nonzeros
Coefficient statistics:
  Matrix range    [1e+00, 1e+02]
  Objective range [2e+01, 1e+02]
  Bounds range    [1e+00, 1e+00]
  RHS range       [1e+00, 2e+01]
Found heuristic solution: objective 7550
Presolve removed 1439 rows and 245 columns
Presolve time: 0.00s
Presolved: 85 rows, 118 columns, 453 nonzeros
Variable types: 0 continuous, 118 integer (117 binary)

Root relaxation: objective 9.450000e+03, 53 iterations, 0.00 seconds

    Nodes    |    Current Node    |     Objective Bounds      |     Work
 Expl Unexpl |  Obj  Depth IntInf | Incumbent    BestBd   Gap | It/Node Time

     0     0 9450.00000    0    2 7550.00000 9450.00000  25.2%     -    0s
H    0     0                    9375.0000000 9450.00000  0.80%     -    0s
H    0     0                    9425.0000000 9450.00000  0.27%     -    0s
H    0     0                    9450.0000000 9450.00000  0.00%     -    0s

Explored 0 nodes (58 simplex iterations) in 0.02 seconds
Thread count was 8 (of 8 available processors)

Optimal solution found (tolerance 1.00e-04)
Best objective 9.450000000000e+03, best bound 9.450000000000e+03, gap 0.0%
Optimize a model with 98 rows, 22 columns and 195 nonzeros
Coefficient statistics:
  Matrix range    [1e+00, 1e+02]
  Objective range [2e+01, 1e+02]
  Bounds range    [1e+00, 1e+00]
  RHS range       [1e+00, 2e+01]
Found heuristic solution: objective 600
Presolve removed 98 rows and 22 columns
Presolve time: 0.00s
Presolve: All rows and columns removed

Explored 0 nodes (0 simplex iterations) in 0.00 seconds
Thread count was 1 (of 8 available processors)

Optimal solution found (tolerance 1.00e-04)
Best objective 6.000000000000e+02, best bound 6.000000000000e+02, gap 0.0%
Optimize a model with 1524 rows, 363 columns and 3366 nonzeros
Coefficient statistics:
  Matrix range    [1e+00, 1e+02]
  Objective range [2e+01, 1e+02]
  Bounds range    [1e+00, 1e+00]
  RHS range       [1e+00, 2e+01]
Found heuristic solution: objective 7550
Presolve removed 1439 rows and 245 columns
Presolve time: 0.01s
Presolved: 85 rows, 118 columns, 453 nonzeros
Variable types: 0 continuous, 118 integer (117 binary)

Root relaxation: objective 9.450000e+03, 53 iterations, 0.00 seconds

    Nodes    |    Current Node    |     Objective Bounds      |     Work
 Expl Unexpl |  Obj  Depth IntInf | Incumbent    BestBd   Gap | It/Node Time

     0     0 9450.00000    0    2 7550.00000 9450.00000  25.2%     -    0s
H    0     0                    9375.0000000 9450.00000  0.80%     -    0s
H    0     0                    9425.0000000 9450.00000  0.27%     -    0s
H    0     0                    9450.0000000 9450.00000  0.00%     -    0s

Explored 0 nodes (58 simplex iterations) in 0.02 seconds
Thread count was 8 (of 8 available processors)

Optimal solution found (tolerance 1.00e-04)
Best objective 9.450000000000e+03, best bound 9.450000000000e+03, gap 0.0%
Optimize a model with 98 rows, 22 columns and 195 nonzeros
Coefficient statistics:
  Matrix range    [1e+00, 1e+02]
  Objective range [2e+01, 1e+02]
  Bounds range    [1e+00, 1e+00]
  RHS range       [1e+00, 2e+01]
Found heuristic solution: objective 600
Presolve removed 98 rows and 22 columns
Presolve time: 0.00s
Presolve: All rows and columns removed

Explored 0 nodes (0 simplex iterations) in 0.00 seconds
Thread count was 1 (of 8 available processors)

Optimal solution found (tolerance 1.00e-04)
Best objective 6.000000000000e+02, best bound 6.000000000000e+02, gap 0.0%
Optimize a model with 30086 rows, 7813 columns and 74450 nonzeros
Coefficient statistics:
  Matrix range    [1e+00, 1e+02]
  Objective range [2e+01, 1e+02]
  Bounds range    [1e+00, 1e+00]
  RHS range       [1e+00, 2e+01]
Found heuristic solution: objective 37000
Presolve removed 27122 rows and 5102 columns
Presolve time: 0.37s
Presolved: 2964 rows, 2711 columns, 13516 nonzeros
Variable types: 0 continuous, 2711 integer (2711 binary)

Root relaxation: objective 5.247500e+04, 277 iterations, 0.00 seconds

    Nodes    |    Current Node    |     Objective Bounds      |     Work
 Expl Unexpl |  Obj  Depth IntInf | Incumbent    BestBd   Gap | It/Node Time

     0     0 52475.0000    0    4 37000.0000 52475.0000  41.8%     -    0s
H    0     0                    52425.000000 52475.0000  0.10%     -    0s
H    0     0                    52475.000000 52475.0000  0.00%     -    0s

Explored 0 nodes (502 simplex iterations) in 0.43 seconds
Thread count was 8 (of 8 available processors)

Optimal solution found (tolerance 1.00e-04)
Best objective 5.247500000000e+04, best bound 5.247500000000e+04, gap 0.0%
Optimize a model with 30086 rows, 7813 columns and 74450 nonzeros
Coefficient statistics:
  Matrix range    [1e+00, 1e+02]
  Objective range [2e+01, 1e+02]
  Bounds range    [1e+00, 1e+00]
  RHS range       [1e+00, 2e+01]
Found heuristic solution: objective 37000
Presolve removed 27122 rows and 5102 columns
Presolve time: 0.38s
Presolved: 2964 rows, 2711 columns, 13516 nonzeros
Variable types: 0 continuous, 2711 integer (2711 binary)

Root relaxation: objective 5.247500e+04, 277 iterations, 0.00 seconds

    Nodes    |    Current Node    |     Objective Bounds      |     Work
 Expl Unexpl |  Obj  Depth IntInf | Incumbent    BestBd   Gap | It/Node Time

     0     0 52475.0000    0    4 37000.0000 52475.0000  41.8%     -    0s
H    0     0                    52425.000000 52475.0000  0.10%     -    0s
H    0     0                    52475.000000 52475.0000  0.00%     -    0s

Explored 0 nodes (502 simplex iterations) in 0.45 seconds
Thread count was 8 (of 8 available processors)

Optimal solution found (tolerance 1.00e-04)
Best objective 5.247500000000e+04, best bound 5.247500000000e+04, gap 0.0%
Optimize a model with 98 rows, 22 columns and 195 nonzeros
Coefficient statistics:
  Matrix range    [1e+00, 1e+02]
  Objective range [2e+01, 1e+02]
  Bounds range    [1e+00, 1e+00]
  RHS range       [1e+00, 2e+01]
Found heuristic solution: objective 600
Presolve removed 98 rows and 22 columns
Presolve time: 0.00s
Presolve: All rows and columns removed

Explored 0 nodes (0 simplex iterations) in 0.00 seconds
Thread count was 1 (of 8 available processors)

Optimal solution found (tolerance 1.00e-04)
Best objective 6.000000000000e+02, best bound 6.000000000000e+02, gap 0.0%
Optimize a model with 1524 rows, 363 columns and 3366 nonzeros
Coefficient statistics:
  Matrix range    [1e+00, 1e+02]
  Objective range [2e+01, 1e+02]
  Bounds range    [1e+00, 1e+00]
  RHS range       [1e+00, 2e+01]
Found heuristic solution: objective 7550
Presolve removed 1439 rows and 245 columns
Presolve time: 0.00s
Presolved: 85 rows, 118 columns, 453 nonzeros
Variable types: 0 continuous, 118 integer (117 binary)

Root relaxation: objective 9.450000e+03, 53 iterations, 0.00 seconds

    Nodes    |    Current Node    |     Objective Bounds      |     Work
 Expl Unexpl |  Obj  Depth IntInf | Incumbent    BestBd   Gap | It/Node Time

     0     0 9450.00000    0    2 7550.00000 9450.00000  25.2%     -    0s
H    0     0                    9375.0000000 9450.00000  0.80%     -    0s
H    0     0                    9425.0000000 9450.00000  0.27%     -    0s
H    0     0                    9450.0000000 9450.00000  0.00%     -    0s

Explored 0 nodes (58 simplex iterations) in 0.02 seconds
Thread count was 8 (of 8 available processors)

Optimal solution found (tolerance 1.00e-04)
Best objective 9.450000000000e+03, best bound 9.450000000000e+03, gap 0.0%
Optimize a model with 1524 rows, 363 columns and 3366 nonzeros
Coefficient statistics:
  Matrix range    [1e+00, 1e+02]
  Objective range [2e+01, 1e+02]
  Bounds range    [1e+00, 1e+00]
  RHS range       [1e+00, 2e+01]
Found heuristic solution: objective 7550
Presolve removed 1439 rows and 245 columns
Presolve time: 0.00s
Presolved: 85 rows, 118 columns, 453 nonzeros
Variable types: 0 continuous, 118 integer (117 binary)

Root relaxation: objective 9.450000e+03, 53 iterations, 0.00 seconds

    Nodes    |    Current Node    |     Objective Bounds      |     Work
 Expl Unexpl |  Obj  Depth IntInf | Incumbent    BestBd   Gap | It/Node Time

     0     0 9450.00000    0    2 7550.00000 9450.00000  25.2%     -    0s
H    0     0                    9375.0000000 9450.00000  0.80%     -    0s
H    0     0                    9425.0000000 9450.00000  0.27%     -    0s
H    0     0                    9450.0000000 9450.00000  0.00%     -    0s

Explored 0 nodes (58 simplex iterations) in 0.01 seconds
Thread count was 8 (of 8 available processors)

Optimal solution found (tolerance 1.00e-04)
Best objective 9.450000000000e+03, best bound 9.450000000000e+03, gap 0.0%
Optimize a model with 30086 rows, 7813 columns and 74450 nonzeros
Coefficient statistics:
  Matrix range    [1e+00, 1e+02]
  Objective range [2e+01, 1e+02]
  Bounds range    [1e+00, 1e+00]
  RHS range       [1e+00, 1e+00]
Found heuristic solution: objective 38625
Presolve removed 27122 rows and 5102 columns
Presolve time: 0.32s
Presolved: 2964 rows, 2711 columns, 13516 nonzeros
Variable types: 0 continuous, 2711 integer (2711 binary)

Root relaxation: objective 5.247500e+04, 277 iterations, 0.00 seconds

    Nodes    |    Current Node    |     Objective Bounds      |     Work
 Expl Unexpl |  Obj  Depth IntInf | Incumbent    BestBd   Gap | It/Node Time

     0     0 52475.0000    0    4 38625.0000 52475.0000  35.9%     -    0s
H    0     0                    52425.000000 52475.0000  0.10%     -    0s
H    0     0                    52475.000000 52475.0000  0.00%     -    0s

Explored 0 nodes (502 simplex iterations) in 0.37 seconds
Thread count was 8 (of 8 available processors)

Optimal solution found (tolerance 1.00e-04)
Best objective 5.247500000000e+04, best bound 5.247500000000e+04, gap 0.0%
Optimize a model with 30086 rows, 7813 columns and 74450 nonzeros
Coefficient statistics:
  Matrix range    [1e+00, 1e+02]
  Objective range [2e+01, 1e+02]
  Bounds range    [1e+00, 1e+00]
  RHS range       [1e+00, 1e+00]
Found heuristic solution: objective 38625
Presolve removed 27122 rows and 5102 columns
Presolve time: 0.44s
Presolved: 2964 rows, 2711 columns, 13516 nonzeros
Variable types: 0 continuous, 2711 integer (2711 binary)

Root relaxation: objective 5.247500e+04, 277 iterations, 0.00 seconds

    Nodes    |    Current Node    |     Objective Bounds      |     Work
 Expl Unexpl |  Obj  Depth IntInf | Incumbent    BestBd   Gap | It/Node Time

     0     0 52475.0000    0    4 38625.0000 52475.0000  35.9%     -    0s
H    0     0                    52425.000000 52475.0000  0.10%     -    0s
H    0     0                    52475.000000 52475.0000  0.00%     -    0s

Explored 0 nodes (502 simplex iterations) in 0.50 seconds
Thread count was 8 (of 8 available processors)

Optimal solution found (tolerance 1.00e-04)
Best objective 5.247500000000e+04, best bound 5.247500000000e+04, gap 0.0%
Optimize a model with 98 rows, 22 columns and 195 nonzeros
Coefficient statistics:
  Matrix range    [1e+00, 1e+02]
  Objective range [2e+01, 1e+02]
  Bounds range    [1e+00, 1e+00]
  RHS range       [1e+00, 1e+00]
Found heuristic solution: objective 575
Presolve removed 98 rows and 22 columns
Presolve time: 0.00s
Presolve: All rows and columns removed

Explored 0 nodes (0 simplex iterations) in 0.00 seconds
Thread count was 1 (of 8 available processors)

Optimal solution found (tolerance 1.00e-04)
Best objective 6.000000000000e+02, best bound 6.000000000000e+02, gap 0.0%
Optimize a model with 1524 rows, 363 columns and 3366 nonzeros
Coefficient statistics:
  Matrix range    [1e+00, 1e+02]
  Objective range [2e+01, 1e+02]
  Bounds range    [1e+00, 1e+00]
  RHS range       [1e+00, 1e+00]
Found heuristic solution: objective 7925
Presolve removed 1439 rows and 245 columns
Presolve time: 0.00s
Presolved: 85 rows, 118 columns, 453 nonzeros
Variable types: 0 continuous, 118 integer (117 binary)

Root relaxation: objective 9.450000e+03, 53 iterations, 0.00 seconds

    Nodes    |    Current Node    |     Objective Bounds      |     Work
 Expl Unexpl |  Obj  Depth IntInf | Incumbent    BestBd   Gap | It/Node Time

     0     0 9450.00000    0    2 7925.00000 9450.00000  19.2%     -    0s
H    0     0                    9375.0000000 9450.00000  0.80%     -    0s
H    0     0                    9425.0000000 9450.00000  0.27%     -    0s
H    0     0                    9450.0000000 9450.00000  0.00%     -    0s

Explored 0 nodes (58 simplex iterations) in 0.02 seconds
Thread count was 8 (of 8 available processors)

Optimal solution found (tolerance 1.00e-04)
Best objective 9.450000000000e+03, best bound 9.450000000000e+03, gap 0.0%
